p cnf 220 528
1 0
7 -8 0
-7 8 0
9 -10 0
-9 10 0
6 -7 0
6 -9 0
-6 7 9 0
11 -12 0
-11 12 0
5 -6 0
5 -11 0
-5 6 11 0
-14 6 0
14 -6 0
15 12 0
-15 -12 0
13 -14 0
13 -15 0
-13 14 15 0
-4 5 0
-4 13 0
4 -5 -13 0
18 -8 0
-18 8 0
19 10 0
-19 -10 0
17 -18 0
17 -19 0
-17 18 19 0
20 -12 0
-20 12 0
16 -17 0
16 -20 0
-16 17 20 0
-3 4 0
-3 16 0
3 -4 -16 0
-24 3 0
24 -3 0
34 -8 0
-34 8 0
35 10 0
-35 -10 0
-33 34 0
-33 35 0
33 -34 -35 0
36 12 0
-36 -12 0
-32 33 0
-32 36 0
32 -33 -36 0
39 40 0
-39 -40 0
41 42 0
-41 -42 0
-38 39 0
-38 41 0
38 -39 -41 0
43 44 0
-43 -44 0
-37 38 0
-37 43 0
37 -38 -43 0
-31 32 0
-31 37 0
31 -32 -37 0
48 8 0
-48 -8 0
49 10 0
-49 -10 0
-47 48 0
-47 49 0
47 -48 -49 0
50 12 0
-50 -12 0
-46 47 0
-46 50 0
46 -47 -50 0
53 40 0
-53 -40 0
54 -42 0
-54 42 0
-52 53 0
-52 54 0
52 -53 -54 0
55 -44 0
-55 44 0
-51 52 0
-51 55 0
51 -52 -55 0
-45 46 0
-45 51 0
45 -46 -51 0
30 -31 0
30 -45 0
-30 31 45 0
59 8 0
-59 -8 0
60 -10 0
-60 10 0
-58 59 0
-58 60 0
58 -59 -60 0
61 -12 0
-61 12 0
-57 58 0
-57 61 0
57 -58 -61 0
64 -40 0
-64 40 0
65 42 0
-65 -42 0
-63 64 0
-63 65 0
63 -64 -65 0
66 44 0
-66 -44 0
-62 63 0
-62 66 0
62 -63 -66 0
-56 57 0
-56 62 0
56 -57 -62 0
29 -30 0
29 -56 0
-29 30 56 0
-69 58 0
69 -58 0
70 12 0
-70 -12 0
-68 69 0
-68 70 0
68 -69 -70 0
-72 52 0
72 -52 0
73 44 0
-73 -44 0
-71 72 0
-71 73 0
71 -72 -73 0
-67 68 0
-67 71 0
67 -68 -71 0
28 -29 0
28 -67 0
-28 29 67 0
-75 46 0
75 -46 0
-76 71 0
76 -71 0
-74 75 0
-74 76 0
74 -75 -76 0
27 -28 0
27 -74 0
-27 28 74 0
-79 47 0
79 -47 0
80 -12 0
-80 12 0
-78 79 0
-78 80 0
78 -79 -80 0
-82 38 0
82 -38 0
83 -44 0
-83 44 0
-81 82 0
-81 83 0
81 -82 -83 0
-77 78 0
-77 81 0
77 -78 -81 0
26 -27 0
26 -77 0
-26 27 77 0
-85 46 0
85 -46 0
-86 81 0
86 -81 0
-84 85 0
-84 86 0
84 -85 -86 0
25 -26 0
25 -84 0
-25 26 84 0
-23 24 0
-23 25 0
23 -24 -25 0
-88 3 0
88 -3 0
-96 32 0
96 -32 0
99 100 0
-99 -100 0
101 102 0
-101 -102 0
-98 99 0
-98 101 0
98 -99 -101 0
103 104 0
-103 -104 0
-97 98 0
-97 103 0
97 -98 -103 0
-95 96 0
-95 97 0
95 -96 -97 0
-106 46 0
106 -46 0
109 100 0
-109 -100 0
110 -102 0
-110 102 0
-108 109 0
-108 110 0
108 -109 -110 0
111 -104 0
-111 104 0
-107 108 0
-107 111 0
107 -108 -111 0
-105 106 0
-105 107 0
105 -106 -107 0
94 -95 0
94 -105 0
-94 95 105 0
-113 57 0
113 -57 0
116 -100 0
-116 100 0
117 102 0
-117 -102 0
-115 116 0
-115 117 0
115 -116 -117 0
118 104 0
-118 -104 0
-114 115 0
-114 118 0
114 -115 -118 0
-112 113 0
-112 114 0
112 -113 -114 0
93 -94 0
93 -112 0
-93 94 112 0
-120 68 0
120 -68 0
-122 108 0
122 -108 0
123 104 0
-123 -104 0
-121 122 0
-121 123 0
121 -122 -123 0
-119 120 0
-119 121 0
119 -120 -121 0
92 -93 0
92 -119 0
-92 93 119 0
-125 46 0
125 -46 0
-126 121 0
126 -121 0
-124 125 0
-124 126 0
124 -125 -126 0
91 -92 0
91 -124 0
-91 92 124 0
-128 78 0
128 -78 0
-130 98 0
130 -98 0
131 -104 0
-131 104 0
-129 130 0
-129 131 0
129 -130 -131 0
-127 128 0
-127 129 0
127 -128 -129 0
90 -91 0
90 -127 0
-90 91 127 0
-133 46 0
133 -46 0
-134 129 0
134 -129 0
-132 133 0
-132 134 0
132 -133 -134 0
89 -90 0
89 -132 0
-89 90 132 0
-87 88 0
-87 89 0
87 -88 -89 0
22 -23 0
22 -87 0
-22 23 87 0
-136 3 0
136 -3 0
-144 32 0
144 -32 0
-145 46 0
145 -46 0
-143 144 0
-143 145 0
143 -144 -145 0
-147 46 0
147 -46 0
-148 57 0
148 -57 0
-146 147 0
-146 148 0
146 -147 -148 0
142 -143 0
142 -146 0
-142 143 146 0
-150 57 0
150 -57 0
-151 32 0
151 -32 0
-149 150 0
-149 151 0
149 -150 -151 0
141 -142 0
141 -149 0
-141 142 149 0
-153 68 0
153 -68 0
-154 68 0
154 -68 0
-152 153 0
-152 154 0
152 -153 -154 0
140 -141 0
140 -152 0
-140 141 152 0
-156 46 0
156 -46 0
-157 68 0
157 -68 0
-155 156 0
-155 157 0
155 -156 -157 0
139 -140 0
139 -155 0
-139 140 155 0
-159 78 0
159 -78 0
-160 78 0
160 -78 0
-158 159 0
-158 160 0
158 -159 -160 0
138 -139 0
138 -158 0
-138 139 158 0
-162 46 0
162 -46 0
-163 78 0
163 -78 0
-161 162 0
-161 163 0
161 -162 -163 0
137 -138 0
137 -161 0
-137 138 161 0
-135 136 0
-135 137 0
135 -136 -137 0
21 -22 0
21 -135 0
-21 22 135 0
2 -3 0
2 -21 0
-2 3 21 0
-173 62 0
173 -62 0
-174 97 0
174 -97 0
-172 173 0
-172 174 0
172 -173 -174 0
-176 37 0
176 -37 0
-177 107 0
177 -107 0
-175 176 0
-175 177 0
175 -176 -177 0
171 -172 0
171 -175 0
-171 172 175 0
-179 51 0
179 -51 0
-180 114 0
180 -114 0
-178 179 0
-178 180 0
178 -179 -180 0
170 -171 0
170 -178 0
-170 171 178 0
-182 71 0
182 -71 0
-183 121 0
183 -121 0
-181 182 0
-181 183 0
181 -182 -183 0
169 -170 0
169 -181 0
-169 170 181 0
-185 37 0
185 -37 0
-186 121 0
186 -121 0
-184 185 0
-184 186 0
184 -185 -186 0
168 -169 0
168 -184 0
-168 169 184 0
-188 81 0
188 -81 0
-189 129 0
189 -129 0
-187 188 0
-187 189 0
187 -188 -189 0
167 -168 0
167 -187 0
-167 168 187 0
-191 37 0
191 -37 0
-192 129 0
192 -129 0
-190 191 0
-190 192 0
190 -191 -192 0
166 -167 0
166 -190 0
-166 167 190 0
-200 114 0
200 -114 0
-201 46 0
201 -46 0
-199 200 0
-199 201 0
199 -200 -201 0
-203 97 0
203 -97 0
-204 57 0
204 -57 0
-202 203 0
-202 204 0
202 -203 -204 0
198 -199 0
198 -202 0
-198 199 202 0
-206 107 0
206 -107 0
-207 32 0
207 -32 0
-205 206 0
-205 207 0
205 -206 -207 0
197 -198 0
197 -205 0
-197 198 205 0
-209 121 0
209 -121 0
-210 68 0
210 -68 0
-208 209 0
-208 210 0
208 -209 -210 0
196 -197 0
196 -208 0
-196 197 208 0
-212 97 0
212 -97 0
-213 68 0
213 -68 0
-211 212 0
-211 213 0
211 -212 -213 0
195 -196 0
195 -211 0
-195 196 211 0
-215 129 0
215 -129 0
-216 78 0
216 -78 0
-214 215 0
-214 216 0
214 -215 -216 0
194 -195 0
194 -214 0
-194 195 214 0
-218 97 0
218 -97 0
-219 78 0
219 -78 0
-217 218 0
-217 219 0
217 -218 -219 0
193 -194 0
193 -217 0
-193 194 217 0
-165 166 0
-165 193 0
165 -166 -193 0
-220 37 0
220 -37 0
-164 165 0
-164 220 0
164 -165 -220 0
-1 2 0
-1 164 0
1 -2 -164 0
